10
0  0  5  5  5  5 26  8  8  0
0  0  5  5  5  5 26  8  8  0
5  5  0  0  3  0  3  8  8  5
5  5  0  0  3  0  3  8  8  5
5  5  3  3  0  3  5  8  8  5
5  5  0  0  3  0  3  8  8  5
24 24  3  3  5  3  0 48 48 24
8  8  8  8  8  8 50  0  0  8
8  8  8  8  8  8 50  0  0  8
0  0  5  5  5  5 26  8  8  0